data/CVRPLIB/Vrp-Set-XML100/instances/XML100_2214_27.vrp
NAME : XML100_2214_27
COMMENT : Generated by Queiroga, Sadykov, Uchoa, and Vidal (2021)
TYPE : CVRP
DIMENSION : 101
EDGE_WEIGHT_TYPE : EUC_2D
CAPACITY : 13
NODE_COORD_SECTION
1    500  500 
2    31   231 
3    92   394 
4    369  407 
5    56   246 
6    591  398 
7    370  300 
8    173  419 
9    243  346 
10   73   220 
11   120  475 
12   398  242 
13   229  440 
14   584  275 
15   481  425 
16   410  487 
17   250  368 
18   702  249 
19   133  215 
20   287  352 
21   586  520 
22   771  330 
23   565  423 
24   611  548 
25   95   78  
26   601  170 
27   58   186 
28   627  325 
29   109  170 
30   250  313 
31   604  395 
32   446  433 
33   85   145 
34   731  418 
35   525  320 
36   26   239 
37   614  380 
38   153  460 
39   295  313 
40   140  413 
41   195  367 
42   3    140 
43   116  342 
44   392  65  
45   122  227 
46   579  245 
47   45   209 
48   571  393 
49   255  363 
50   0    243 
51   78   64  
52   33   202 
53   594  533 
54   59   160 
55   268  295 
56   42   211 
57   40   294 
58   510  409 
59   179  395 
60   601  362 
61   181  314 
62   106  177 
63   334  505 
64   585  380 
65   607  337 
66   497  471 
67   2    164 
68   255  316 
69   654  636 
70   76   161 
71   70   230 
72   762  535 
73   923  345 
74   104  232 
75   194  324 
76   560  360 
77   582  381 
78   625  574 
79   74   147 
80   273  321 
81   510  587 
82   274  381 
83   197  315 
84   548  400 
85   70   8   
86   284  249 
87   261  431 
88   278  245 
89   222  178 
90   2    155 
91   246  355 
92   573  444 
93   655  415 
94   487  454 
95   298  311 
96   88   203 
97   204  380 
98   618  267 
99   11   197 
100  622  388 
101  343  253 
DEMAND_SECTION
1    0   
2    1   
3    1   
4    1   
5    1   
6    1   
7    1   
8    1   
9    1   
10   1   
11   1   
12   1   
13   1   
14   1   
15   1   
16   1   
17   1   
18   1   
19   1   
20   1   
21   1   
22   1   
23   1   
24   1   
25   1   
26   1   
27   1   
28   1   
29   1   
30   1   
31   1   
32   1   
33   1   
34   1   
35   1   
36   1   
37   1   
38   1   
39   1   
40   1   
41   1   
42   1   
43   1   
44   1   
45   1   
46   1   
47   1   
48   1   
49   1   
50   1   
51   1   
52   1   
53   1   
54   1   
55   1   
56   1   
57   1   
58   1   
59   1   
60   1   
61   1   
62   1   
63   1   
64   1   
65   1   
66   1   
67   1   
68   1   
69   1   
70   1   
71   1   
72   1   
73   1   
74   1   
75   1   
76   1   
77   1   
78   1   
79   1   
80   1   
81   1   
82   1   
83   1   
84   1   
85   1   
86   1   
87   1   
88   1   
89   1   
90   1   
91   1   
92   1   
93   1   
94   1   
95   1   
96   1   
97   1   
98   1   
99   1   
100  1   
101  1   
DEPOT_SECTION
1
-1
EOF
