data/CVRPLIB/Vrp-Set-XML100/solutions/XML100_2214_27.sol
Route #1: 3 19 94 38 79 67 29 54 87 85 100 6 31
Route #2: 30 99 36 59 64 27 97 17 25 45 13 34 75
Route #3: 65 93 14 57 83 47 76 63 5 22
Route #4: 74 60 70 4 1 35 49 56 42 2 39 10 37
Route #5: 11 43 84 50 24 41 89 66 98 51 55 46 9
Route #6: 91 92 33 21 72 71 68 77 23 52 20 80
Route #7: 81 16 48 90 8 40 96 58 7 12 86 62 15
Route #8: 82 18 44 73 95 26 53 69 78 32 28 61 88
Cost 8218
